problems/csplib-prob028/BIBD-models/noch/O2/lingeling/model-77331-solution000001.solution
language Essence 1.3

letting Obj be new type enum {Obj_1, Obj_2, Obj_3, Obj_4, Obj_5, Obj_6, Obj_7}
letting Block be new type enum {Block_1, Block_2, Block_3, Block_4, Block_5, Block_6, Block_7}
letting bibd be relation((Obj_7, Block_5))
